58869.22,46.96,56.95
55442.36,49.87,60.47
56353.12,49.06,59.49
61823.15,44.72,54.23
53986.29,51.21,62.1
52555.97,52.6,63.79
52476.87,52.68,63.89
60560.27,45.65,55.36
53704.13,51.48,62.43
54943.66,50.32,61.02
51331.13,53.86,65.31
53251.47,51.92,62.96
52818.87,52.34,63.47
47691.93,57.97,70.3
61879.41,44.68,54.18
59863.99,46.18,56.0
51555.62,53.62,65.03
54483.65,50.74,61.53
58806.66,47.01,57.01
57433.18,48.14,58.37
